(set-logic QF_BV)
(declare-fun _substvar_804_ () (_ BitVec 32))
(declare-fun _substvar_923_ () (_ BitVec 32))
(declare-fun _substvar_907_ () (_ BitVec 32))
(declare-fun _substvar_938_ () (_ BitVec 32))
(declare-fun _substvar_750_ () (_ BitVec 32))
(declare-fun _substvar_843_ () (_ BitVec 32))
(declare-fun _substvar_904_ () (_ BitVec 32))
(declare-fun _substvar_744_ () (_ BitVec 32))
(declare-fun _substvar_863_ () (_ BitVec 32))
(declare-fun _substvar_854_ () (_ BitVec 32))
(declare-fun _substvar_755_ () (_ BitVec 32))
(assert (let ( (?v_5 ((_ zero_extend 24) (_ bv15 8)))) (let ((?v_48 (bvadd _substvar_804_ _substvar_907_))) (let ((?v_19 (bvadd (bvmul _substvar_923_ ?v_5) _substvar_843_))) (and true true true true true true true true true true true true true true true true true true true true true true true true true true true true true true true true true true true true true true true true true true true true true true true true true true true true true true true true true true true true true true (= ?v_19 (bvadd (bvmul (bvsub (_ bv0 32) (_ bv48 32)) ?v_5) (_ bv0 32))) true true true true (= _substvar_755_ ?v_19) true true true (= _substvar_750_ _substvar_755_) true true (= _substvar_744_ _substvar_750_) true true (= _substvar_938_ _substvar_744_) true (= _substvar_863_ _substvar_938_) true (= _substvar_904_ _substvar_863_) (= (_ bv0 32) ?v_48) (= _substvar_854_ _substvar_904_) (= ?v_48 _substvar_854_))))))
(check-sat)
(exit)
